gen	cost
1	1384
2	1372
3	1360
4	1339
5	1327
6	1318
7	1310
8	1308
9	1298
10	1284
11	1283
12	1267
13	1260
14	1252
15	1244
16	1237
17	1227
18	1217
19	1213
20	1201
21	1194
22	1188
23	1177
24	1167
25	1161
26	1158
27	1156
28	1149
29	1143
30	1135
31	1126
32	1114
33	1112
34	1110
35	1108
36	1106
37	1097
38	1091
39	1085
40	1079
41	1071
42	1070
43	1065
44	1064
45	1062
46	1049
47	1045
48	1041
49	1029
50	1023

